;; sat

(declare-const x1 sl.list.loc)
(declare-const x2 sl.list.loc)
(declare-const x3 sl.list.loc)
(declare-const x4 sl.list.loc)
(declare-const x6 sl.list.loc)
(declare-const x7 sl.list.loc)
(declare-const x8 sl.list.loc)
(declare-const x9 sl.list.loc)
(declare-const x10 sl.list.loc)
(declare-const x11 sl.list.loc)
(declare-const x12 sl.list.loc)
(declare-const x13 sl.list.loc)
(declare-const x14 sl.list.loc)
(declare-const x15 sl.list.loc)
(declare-const x16 sl.list.loc)
(declare-const x17 sl.list.loc)

(assert (sl.sepcon (sl.sepcon (sl.sepcon (sl.sepcon (sl.sepcon (sl.sepcon (sl.sepcon (sl.sepcon (sl.sepcon (sl.sepcon (sl.sepcon (sl.sepcon (sl.sepcon (sl.sepcon (sl.sepcon (sl.sepcon (sl.list.eq sl.list.null sl.list.null)
 (sl.list.neq x6 x8)
)
 (sl.list.neq x6 x11)
)
 (sl.list.neq x6 x16)
)
 (sl.list.neq x11 x17)
)
 (sl.list.neq x3 x4)
)
 (sl.list.neq x3 x11)
)
 (sl.list.neq x3 x7)
)
 (sl.list.neq x3 x13)
)
 (sl.list.neq x3 x9)
)
 (sl.list.neq x3 x15)
)
 (sl.list.neq x9 x13)
)
 (sl.list.neq x9 x17)
)
 (sl.list.neq x4 x16)
)
 (sl.list.neq x1 x14)
)
 (sl.list.neq x13 x16)
)
 (sl.sepcon (sl.sepcon (sl.sepcon (sl.sepcon (sl.sepcon (sl.sepcon (sl.sepcon (sl.sepcon (sl.sepcon (sl.sepcon (sl.sepcon (sl.sepcon (sl.sepcon (sl.list.seg x10 x12)
 (sl.list.seg x16 x14)
)
 (sl.list.seg x16 x1)
)
 (sl.list.seg x1 x3)
)
 (sl.list.seg x1 x8)
)
 (sl.list.seg x17 x14)
)
 (sl.list.seg x17 x16)
)
 (sl.list.seg x12 x10)
)
 (sl.list.seg x12 x9)
)
 (sl.list.seg x12 x1)
)
 (sl.list.seg x2 x8)
)
 (sl.list.seg x9 x15)
)
 (sl.list.seg x7 x4)
)
 (sl.list.seg x3 x14)
)
)
)

